POSCAR with -8.23987132543
1.0
       12.1844873428         0.0000000000         0.0000000000
        0.0000000000        12.1844873428         0.0000000000
        0.0000000000         0.0000000000        12.1844873428
  Ga    Sb
  32     32
Direct
     0.000000000         0.000000000         0.000000000
     0.500000000         0.000000000         0.000000000
     0.000000000         0.250000000         0.250000000
     0.500000000         0.250000000         0.250000000
     0.250000000         0.000000000         0.750000000
     0.750000000         0.000000000         0.750000000
     0.250000000         0.250000000         0.500000000
     0.750000000         0.250000000         0.500000000
     0.250000000         0.500000000         0.250000000
     0.750000000         0.500000000         0.250000000
     0.250000000         0.750000000         0.000000000
     0.750000000         0.750000000         0.000000000
     0.000000000         0.750000000         0.250000000
     0.500000000         0.750000000         0.250000000
     0.000000000         0.500000000         0.500000000
     0.500000000         0.500000000         0.500000000
     0.250000000         0.750000000         0.500000000
     0.750000000         0.750000000         0.500000000
     0.250000000         0.000000000         0.250000000
     0.750000000         0.000000000         0.250000000
     0.000000000         0.000000000         0.500000000
     0.500000000         0.000000000         0.500000000
     0.250000000         0.500000000         0.750000000
     0.750000000         0.500000000         0.750000000
     0.000000000         0.250000000         0.750000000
     0.500000000         0.250000000         0.750000000
     0.000000000         0.750000000         0.750000000
     0.500000000         0.750000000         0.750000000
     0.000000000         0.500000000         0.000000000
     0.500000000         0.500000000         0.000000000
     0.250000000         0.250000000         0.000000000
     0.750000000         0.250000000         0.000000000
     0.625000000         0.625000000         0.625000000
     0.125000000         0.625000000         0.625000000
     0.625000000         0.875000000         0.875000000
     0.125000000         0.875000000         0.875000000
     0.875000000         0.625000000         0.375000000
     0.375000000         0.625000000         0.375000000
     0.875000000         0.875000000         0.125000000
     0.375000000         0.875000000         0.125000000
     0.875000000         0.125000000         0.875000000
     0.375000000         0.125000000         0.875000000
     0.875000000         0.375000000         0.625000000
     0.375000000         0.375000000         0.625000000
     0.625000000         0.375000000         0.875000000
     0.125000000         0.375000000         0.875000000
     0.625000000         0.125000000         0.125000000
     0.125000000         0.125000000         0.125000000
     0.875000000         0.375000000         0.125000000
     0.375000000         0.375000000         0.125000000
     0.875000000         0.625000000         0.875000000
     0.375000000         0.625000000         0.875000000
     0.625000000         0.625000000         0.125000000
     0.125000000         0.625000000         0.125000000
     0.875000000         0.125000000         0.375000000
     0.375000000         0.125000000         0.375000000
     0.625000000         0.875000000         0.375000000
     0.125000000         0.875000000         0.375000000
     0.625000000         0.375000000         0.375000000
     0.125000000         0.375000000         0.375000000
     0.625000000         0.125000000         0.625000000
     0.125000000         0.125000000         0.625000000
     0.875000000         0.875000000         0.625000000
     0.375000000         0.875000000         0.625000000
