NCORE = 4
ISTART = 0
ENCUT = 500
NSW = 100
IBRION = 2
ISMEAR = 0
SIGMA = 0.01
ISIF = 2
LCHARG = .F.
LWAVE = .F.
EDIFFG = -0.02
EDIFF = 0.000001
LREAL = A
